NAME : ../File/prFile/tspFile/tsp_file11.tsp.494.tour
COMMENT : Length = 494
COMMENT : Found by LKH-3 [Keld Helsgaun] Wed Jun 14 17:47:17 2023
TYPE : TOUR
DIMENSION : 30
TOUR_SECTION
1
8
2
14
10
12
6
11
16
22
20
25
18
24
19
7
5
17
13
27
26
28
15
30
9
4
29
3
21
23
-1
EOF
